p cnf 36 103
a 32 28 0
e 1 2 3 4 5 6 7 8 9 10 11 12 13 14 15 16 17 18 19 20 21 22 23 24 25 26 27 29 30 31 33 34 35 36 0
-1 -2 -3 0
1 2 -3 0
-1 2 3 0
1 -2 3 0
6 -4 0
6 -5 0
4 5 -6 0
-7 3 0
-7 6 0
-3 -6 7 0
-9 -3 0
-9 2 0
3 -2 9 0
9 6 -10 0
-9 -6 -10 0
9 -6 10 0
-9 6 10 0
-8 -10 -11 0
8 10 -11 0
-8 10 11 0
8 -10 11 0
-12 -9 -13 0
12 9 -13 0
-12 9 13 0
12 -9 13 0
-14 -11 0
-14 -13 0
11 13 14 0
-15 -7 0
-15 14 0
7 -14 15 0
-16 5 0
-16 -5 0
9 -6 -17 0
-9 6 -17 0
9 6 17 0
-9 -6 17 0
18 17 0
18 -10 0
-17 10 -18 0
-19 18 0
-19 -18 0
-20 -16 0
-20 19 0
16 -19 20 0
21 19 0
21 5 0
-19 -5 -21 0
22 -18 0
22 -21 0
18 21 -22 0
20 -22 -23 0
-20 22 -23 0
20 22 23 0
-20 -22 23 0
15 23 -24 0
-15 -23 -24 0
15 -23 24 0
-15 23 24 0
-2 1 -25 0
2 -1 -25 0
-2 -1 25 0
2 1 25 0
26 16 0
26 -6 0
-16 6 -26 0
26 -27 -28 0
-26 27 -28 0
26 27 28 0
-26 -27 28 0
29 25 0
29 28 0
-25 -28 -29 0
30 6 0
30 -1 0
-6 1 -30 0
-31 -29 0
-31 30 0
29 -30 31 0
-32 -5 -33 0
32 5 -33 0
-32 5 33 0
32 -5 33 0
-1 33 -34 0
1 -33 -34 0
-1 -33 34 0
1 33 34 0
-35 31 0
-35 -34 0
-31 34 35 0
-36 24 0
-36 -35 0
-24 35 36 0
-34 -21 17 19 13 5 0
-25 -15 26 0
-21 -26 9 -8 0
-1 -22 19 -5 -34 0
-22 -1 -11 0
1 21 -8 12 35 0
1 3 32 0
-26 -33 -1 -31 6 0
-12 34 15 16 32 0
36 0
